1 948 7
2 860 6
4 834 6
5 829 6
11 828 6
14 823 6
24 821 6
26 809 6
65 801 6
101 794 6
136 780 6
159 778 6
285 774 6
999 772 6



1 970 6
2 860 6
6 847 6
9 806 6
32 766 6



1 960 6
2 862 7
3 840 6
9 832 6
10 808 6
23 793 6
47 779 6
381 766 6



1 1011 6
2 853 6
5 836 6
6 826 6
18 818 6
25 798 6
42 782 6
130 771 6
432 765 6



1 890 6
2 879 6
3 846 6
4 828 6
7 796 6
27 794 6
34 793 6
78 791 6
177 790 6
253 781 6
343 780 6
496 774 6
923 768 6



